WARNING: for repeatability, setting FPU to use double precision
============================[ Problem Statistics ]=============================
|                                                                             |
|  Number of variables:          3230                                         |
|  Number of clauses:           20575                                         |
|  Parse time:                   0.01 s                                       |
|                                                                             |
============================[ Search Statistics ]==============================
| Conflicts |          ORIGINAL         |          LEARNT          | Progress |
|           |    Vars  Clauses Literals |    Limit  Clauses Lit/Cl |          |
===============================================================================
|       100 |    3230    20575    69606 |     7544      100      6 |  0.002 % |
|       250 |    3230    20575    69606 |     8298      250     13 |  0.000 % |
|       475 |    3230    20575    69606 |     9128      475     14 |  0.000 % |
|       812 |    3230    20575    69606 |    10041      812     17 |  0.000 % |
|      1318 |    3230    20575    69606 |    11045     1318     24 |  0.001 % |
|      2077 |    3230    20575    69606 |    12149     2077     23 |  0.000 % |
|      3216 |    3230    20575    69606 |    13364     3216     30 |  0.000 % |
|      4924 |    3230    20575    69606 |    14701     4924     32 |  0.001 % |
|      7486 |    3230    20575    69606 |    16171     7486     33 |  0.001 % |
|     11330 |    3230    20575    69606 |    17788    11330     35 |  0.000 % |
|     17096 |    3229    20565    69573 |    19567    17092     38 |  0.032 % |
|     25745 |    3229    20565    69573 |    21524    15925     38 |  0.031 % |
|     38719 |    3229    20565    69573 |    23676    17974     38 |  0.031 % |
|     58180 |    3229    20565    69573 |    26044    13523     34 |  0.031 % |
|     87372 |    3229    20565    69573 |    28648    16069     36 |  0.031 % |
|    131161 |    3229    20565    69573 |    31513    28599     42 |  0.032 % |
|    196845 |    3229    20565    69573 |    34665    30171     43 |  0.032 % |
|    295371 |    3229    20565    69573 |    38131    34128     43 |  0.031 % |
|    443160 |    3229    20565    69573 |    41944    19084     38 |  0.032 % |
|    664843 |    3229    20565    69573 |    46139    18538     41 |  0.031 % |
|    997368 |    3229    20565    69573 |    50753    30606     38 |  0.031 % |
|   1496156 |    3229    20565    69573 |    55828    50506     39 |  0.032 % |
|   2244338 |    3229    20565    69573 |    61411    31990     35 |  0.032 % |
|   3366612 |    3229    20565    69573 |    67552    37204     35 |  0.031 % |
|   5050023 |    3228    20556    69543 |    74308    46213     35 |  0.062 % |
===============================================================================
restarts              : 8191
conflicts             : 5190350        (17345 /sec)
decisions             : 7834719        (0.00 % random) (26182 /sec)
propagations          : 1431249992     (4782950 /sec)
conflict literals     : 228580150      (51.95 % deleted)
Memory used           : 60.00 MB
CPU time              : 299.24 s

INDETERMINATE
